NAME : amtsp.-96360.tour
COMMENT : Length = -96360
COMMENT : Found by LKH [Keld Helsgaun] Thu Apr 13 22:30:19 2023
TYPE : TOUR
DIMENSION : 23
TOUR_SECTION
1
2
13
14
15
16
17
18
19
23
20
21
22
3
4
5
6
7
8
9
10
11
12
-1
EOF
